p wcnf 149 74 75 
1 100 -17 0 
1 -48 126 0 
1 34 -120 0 
1 27 -40 0 
1 82 78 0 
1 -114 84 0 
1 -124 -94 0 
1 -62 147 0 
1 -22 118 0 
1 114 58 0 
1 11 46 0 
1 18 -139 0 
1 -24 -57 0 
1 61 -110 0 
1 16 -2 0 
1 -129 -107 0 
1 -58 123 0 
1 -129 -76 0 
1 37 85 0 
1 -127 -23 0 
1 -147 -39 0 
1 -72 9 0 
1 -81 76 0 
1 19 -53 0 
1 -10 -89 0 
1 143 -51 0 
1 134 85 0 
1 -57 -32 0 
1 -10 134 0 
1 51 21 0 
1 108 -84 0 
1 33 -29 0 
1 139 70 0 
1 92 114 0 
1 -102 104 0 
1 -106 66 0 
1 -73 -67 0 
1 38 20 0 
1 -116 -63 0 
1 127 46 0 
1 -52 -126 0 
1 -128 111 0 
1 76 147 0 
1 -1 -83 0 
1 1 2 0 
1 -124 -87 0 
1 117 72 0 
1 -51 -1 0 
1 -69 29 0 
1 35 132 0 
1 -142 -65 0 
1 -74 90 0 
1 105 -43 0 
1 102 -69 0 
1 81 75 0 
1 21 89 0 
1 -48 -70 0 
1 34 113 0 
1 55 90 0 
1 113 144 0 
1 135 -61 0 
1 92 73 0 
1 -36 -49 0 
1 97 117 0 
1 -61 -86 0 
1 80 28 0 
1 63 -1 0 
1 8 74 0 
1 -15 49 0 
1 -38 99 0 
1 101 -126 0 
1 -18 140 0 
1 53 -55 0 
1 62 31 0 
